306567
306567
301583
301583
301583
297346
297346
291782
291782
291782
291782
291484
288644
288644
288644
286705
285436
285436
283771
283771
282911
282445
282445
281224
281224
281224
280672
279262
279262
279031
277861
277861
277850
277850
275140
275140
272426
271791
271791
271659
271659
271659
271659
270265
270265
269963
269963
269959
269365
268831
268831
267983
267983
267835
266074
266074
266074
266074
265619
265619
264580
262440
262440
261400
261400
260539
259657
259499
258936
258936
258936
258264
257026
257026
256295
256295
256295
256295
256295
254525
254056
254056
254056
251926
251926
251926
251926
251926
251902
251599
248244
248244
248244
247783
247776
247776
247437
244864
244864
243194
